(set-logic ALL)
(declare-fun var0 () String)
(assert (str.in_re var0 (re.++ (re.union (re.union (str.to_re "0") (str.to_re "111")) (re.union (str.to_re "222") (str.to_re "33"))) (re.++ (re.union (re.union (str.to_re "4") (str.to_re "555")) (re.union (str.to_re "6") (str.to_re "7"))) (re.++ (re.* (re.* (str.to_re "888"))) (re.++ (re.* (re.+ (str.to_re "9"))) (re.++ (re.* (re.* (str.to_re "aaa"))) (re.++ (re.union (re.union (str.to_re "b") (str.to_re "c")) (re.union (str.to_re "dd") (str.to_re "eee"))) (re.++ (re.+ (re.+ (str.to_re "fff"))) (re.++ (re.union (re.+ (str.to_re "ggg")) (re.+ (str.to_re "hh"))) (re.++ (re.+ (re.union (str.to_re "ii") (str.to_re "jj"))) (re.union (re.* (str.to_re "k")) (re.* (str.to_re "ll"))))))))))))))
(assert (<= 76 (str.len var0)))
(check-sat)